53520 -1 29499 210972 54482 0.98
53430 -1 28168 198812 55856 0.98
53470 -1 35422 249903 56316 0.98
53480 -1 28953 216901 55036 0.98
53456 -1 29969 211275 54964 0.92
53088 -1 31882 224554 55584 0.98
53510 -1 26054 185933 55948 0.96
53440 -1 30106 213075 55250 1
53258 -1 32321 228727 55914 1
53244 -1 32363 228175 55456 0.94
